21

C          1.05546       -0.25894       -1.04588
C          7.44622        0.56143       -1.37650
C          6.79772       -0.57330       -0.89529
C          6.70910        1.70823       -1.68392
C          5.41224       -0.57260       -0.72932
C          2.50683       -0.53920       -1.29915
C          5.31456        1.72398       -1.51849
C          4.66715        0.56122       -1.07218
C          4.61418        2.99074       -1.85306
O          2.93152       -1.57932       -1.78074
O          5.03429        3.77690       -2.68489
O          3.52288        3.23883       -1.09970
O          3.26176        0.57618       -0.91507
H          0.47854       -1.17361       -1.21188
H          0.70339        0.51128       -1.73554
H          0.90873        0.05191       -0.00861
H          8.52462        0.55617       -1.51332
H          7.37091       -1.46677       -0.65519
H          7.22743        2.59267       -2.04979
H          4.93259       -1.47116       -0.35117
H          3.33526        2.54957       -0.43522
