20

C          1.48258        0.86965       -0.21093
C          0.38319        0.52377       -1.22640
C         -0.12942       -0.55896       -3.46743
C         -0.35524       -1.86666       -3.60006
C          0.90856       -0.28693       -2.43306
C          0.55038       -2.54427       -2.65006
O          2.06553       -0.29157        0.37071
O         -0.64940       -0.20110       -0.53268
O         -0.70880        0.47941       -4.14384
O         -1.21715       -2.52554       -4.42569
O          0.62085       -3.74353       -2.45043
O          1.29862       -1.60319       -2.00934
H          1.06778        1.46601        0.60890
H          2.28073        1.44724       -0.68623
H         -0.05954        1.46270       -1.57940
H          1.77577        0.20791       -2.88550
H          1.41251       -0.67013        0.98502
H         -0.28878       -1.09090       -0.35948
H         -1.44956        0.16007       -4.68444
H         -1.69003       -1.89373       -4.98363
