174

C         -6.35233        3.82428       -3.08352
C         -5.01568        2.51553       -1.54304
C        -10.36481       -9.36729       -9.64083
C        -12.48274       -9.88293       -8.58152
C         -8.89286       -5.24607        7.35162
C         -7.01421       -3.76348        7.08687
C         -7.09274        0.85728       -6.21973
C         -8.63094        2.73104       -6.03775
C         -0.37117       -1.92572        0.00265
C          0.36716       -3.92220        1.14374
C         -4.41807       -2.67819       -5.19883
C        -13.68613       -3.80840       -5.62923
C         -9.74283       -8.06291        1.13378
C        -13.52048       -0.13769       -2.12762
C         -5.55165       -7.19885       -0.55129
C         -5.81417       -1.98693       -3.28299
C        -11.82431       -5.17361       -6.42246
C         -8.35204       -6.45141        2.35082
C        -11.36456       -0.52196       -3.09908
C         -4.83970       -5.14103        0.52466
C         -7.31632       -5.05418       -2.94885
C         -6.00510        2.58983       -2.52783
C        -11.45048       -8.97250       -8.83302
C         -7.73117       -4.90962        6.64726
C         -8.37762        1.35356       -5.91111
C         -0.66271       -3.19038        0.52765
C         -5.25498       -2.96312       -4.16352
C        -12.29759       -4.02827       -5.77586
C         -9.24104       -6.73574        1.29338
C        -12.44555       -1.02334       -2.34768
C         -5.89286       -5.94637       -0.08328
C         -5.66599        4.96713       -2.67951
C         -4.39499        3.66722       -1.09442
C        -10.29747      -10.66762      -10.14761
C        -12.37069      -11.19045       -9.04528
C         -9.44991       -4.33954        8.27464
C         -7.56562       -2.88415        8.03943
C         -6.07364        1.74633       -6.55560
C         -7.57927        3.60617       -6.34283
C          0.90717       -1.36761        0.09101
C          1.65613       -3.35846        1.22672
C         -4.01373       -1.39315       -5.28791
C        -14.54004       -4.89132       -5.72369
C         -9.77574       -8.87442        2.24596
C        -13.62638        1.04384       -2.88046
C         -4.26157       -7.69256       -0.31605
C         -5.42205       -0.67925       -3.43170
C        -12.72717       -6.20135       -6.66638
C         -8.49196       -7.19625        3.51549
C        -11.48782        0.64337       -3.88966
C         -3.51397       -5.62070        0.65646
C         -8.58541       -4.69272       -3.63782
C         -4.70750        4.89161       -1.66721
C        -11.29088      -11.59088       -9.82548
C         -8.82467       -3.13030        8.57836
C         -6.29803        3.11459       -6.55089
C          1.91733       -2.08999        0.71659
C         -4.42751       -0.41723       -4.35715
C        -14.02095       -6.11019       -6.13792
C         -9.40432       -8.27064        3.46039
C        -12.64808        1.40226       -3.80737
C         -3.26009       -6.94102        0.32032
C         -9.35646       -3.48954       -3.05579
C         -9.96943       -3.64275       -1.31460
C        -11.08368       -4.48850       -1.67130
C         -5.54463       -4.39121       -4.03575
C         -6.70986        1.30866       -2.87935
C        -11.42510       -7.59416       -8.25134
C         -7.31441       -5.60931        5.34704
C         -9.33215        0.41838       -5.21510
C         -2.04106       -3.75849        0.28479
C        -11.41108       -3.06682       -5.06808
C        -10.11283       -5.63892        0.63360
C        -12.54631       -2.46885       -1.80650
C         -7.29904       -5.38561       -0.32449
C         -9.86970       -5.81826       -2.03628
O         -5.91896        6.18846       -3.24244
O         -3.50652        3.55929       -0.06722
O         -9.25739      -11.05649      -10.94499
O        -13.34162      -12.07780       -8.67828
O        -10.65064       -4.69152        8.82609
O         -6.92933       -1.72305        8.39432
O         -4.79381        1.35491       -6.83231
O         -7.76746        4.96024       -6.29180
O          1.22723       -0.12617       -0.38080
O          2.66595       -4.03206        1.80528
O         -3.22590       -1.01710       -6.34921
O        -15.82638       -4.79964       -5.27724
O        -10.53308      -10.01511        2.27310
O        -14.72447        1.86189       -2.79578
O         -3.91080       -8.94485       -0.74878
O         -4.09220        6.03146       -1.23681
O        -11.25787      -12.88669      -10.26241
O         -9.38492       -2.18465        9.39338
O         -5.22080        3.95562       -6.64490
O          3.16739       -1.53820        0.81567
O         -3.81340        0.80084       -4.38561
O        -14.67529       -7.26929       -5.81169
O        -10.54579       -8.03785        4.26274
O        -12.86694        2.46985       -4.63789
O         -2.04709       -7.52077        0.56297
O         -5.35964       -5.27486       -4.79684
O         -7.89305        1.26818       -3.13804
O        -10.58818       -6.76415       -8.57025
O         -6.30145       -5.27875        4.74291
O         -9.00653       -0.72898       -4.93348
O         -2.76124       -3.26767       -0.58433
O        -11.76486       -1.90439       -5.10973
O        -11.27451       -6.02581        0.48281
O        -13.26400       -2.69912       -0.84046
O         -7.36354       -4.18698        0.00084
O         -6.10407       -4.42918       -2.84583
O         -5.90694        0.25408       -2.49723
O        -12.41921       -7.43923       -7.29253
O         -8.26630       -6.54730        4.84054
O        -10.50265        1.07945       -4.83643
O         -2.40129       -4.83632        1.08905
O         -9.46217       -5.81660       -3.41822
O        -10.48446       -3.66411       -4.27687
O         -9.56210       -4.47721        0.01836
O        -11.86060       -3.49203       -2.47225
O         -8.37806       -6.13480       -1.07949
H         -7.15457        3.89859       -3.80357
H         -4.75881        1.55966       -1.10303
H         -9.57587       -8.65035       -9.85697
H        -13.36777       -9.61464       -8.01322
H         -9.41290       -6.18069        7.16265
H         -6.05436       -3.51578        6.64006
H         -6.88724       -0.20126       -6.09469
H         -9.60642        3.13169       -5.77696
H         -1.16930       -1.37696       -0.52713
H          0.18501       -4.92377        1.51036
H         -4.09424       -3.47501       -5.86769
H        -14.06518       -2.84074       -5.30684
H        -10.29812       -8.36297        0.24239
H        -14.28781       -0.38791       -1.40032
H         -6.28123       -7.77844       -1.10952
H         -6.49524       -2.22732       -2.47659
H        -10.77080       -5.27116       -6.65242
H         -7.68889       -5.60125        2.31984
H        -10.47971       -1.12184       -3.21443
H         -5.04605       -4.12623        0.86754
H         -7.16603       -6.13708       -2.90525
H         -7.66368       -4.57009       -2.07833
H         -8.40416       -4.58567       -4.71504
H         -8.86436       -2.52929       -3.20824
H        -10.16210       -2.62922       -0.95194
H        -11.76558       -4.72865       -0.87466
H        -10.39773       -6.76038       -1.86860
H         -6.34025        6.04181       -4.11247
H         -3.59913        2.66940        0.31371
H         -8.63684      -10.31235      -11.03607
H        -12.90878      -12.95404       -8.68389
H        -11.20979       -3.90249        8.88513
H         -5.96805       -1.84716        8.36521
H         -4.71315        0.40198       -6.66120
H         -8.71839        5.14194       -6.38769
H          0.41598        0.33910       -0.64549
H          2.35716       -4.89710        2.14007
H         -3.12698       -1.80661       -6.92901
H        -15.90838       -4.01995       -4.70382
H        -11.20065      -10.01300        1.56541
H        -15.40949        1.40913       -2.27462
H         -4.58510       -9.23865       -1.38910
H         -4.49895        6.74881       -1.76029
H        -10.82750      -12.86219      -11.13871
H        -10.34592       -2.17181        9.28896
H         -4.44114        3.36564       -6.58544
H          3.10191       -0.66133        0.39441
H         -3.11586        0.71014       -5.06308
H        -13.96165       -7.90056       -5.60134
H        -11.20007       -7.70768        3.60548
H        -13.77075        2.77567       -4.42055
H         -2.16291       -8.46073        0.31059
