141

C          9.36362       -5.02980        4.88917
C         38.70883      -19.24603      -10.84103
C         24.45521       -3.49737       -4.01440
C         24.35200       -5.55860       -2.59544
C         10.38273       -5.77620        4.04979
C         37.77588      -18.50998       -9.89978
C         10.82790       -4.92097        2.87315
C         37.52032      -17.09858      -10.40583
C         11.85087       -5.66539        2.03087
C         36.58563      -16.35815       -9.46479
C         12.28665       -4.80124        0.86055
C         36.33875      -14.95309       -9.98360
C         13.30747       -5.54157        0.01837
C         35.40553      -14.21332       -9.04743
C         13.73498       -4.66793       -1.14771
C         35.16874      -12.81092       -9.57749
C         14.75020       -5.40708       -1.98394
C         34.23609      -12.07775       -8.63751
C         15.20816       -4.58565       -3.14347
C         33.98268      -10.70413       -9.12905
C         16.11485       -5.04438       -4.01492
C         33.15534       -9.84568       -8.42986
C         16.70914       -6.41567       -3.88492
C         32.52732      -10.25997       -7.14167
C         16.41254       -7.27559       -5.10281
C         32.95075       -9.34342       -6.00037
C         16.99362       -6.63169       -6.35045
C         32.54482       -7.91321       -6.30834
C         18.49482       -6.47473       -6.20263
C         31.04055       -7.82553       -6.49054
C         19.09118       -5.81999       -7.42923
C         30.64144       -6.40819       -6.81504
C         20.58932       -5.69131       -7.22631
C         29.14574       -6.33641       -6.99880
C         21.27043       -5.03724       -8.41271
C         28.75379       -4.90681       -7.32196
C         26.49482       -4.91674       -3.48968
C         29.67675       -3.21181       -0.35344
C         22.77759       -4.93937       -8.13735
C         27.27632       -4.82372       -7.48323
C         26.75032       -4.09789       -2.23294
C         28.21974       -3.26013       -0.71045
C         24.63944       -5.79088       -5.04178
C         24.80335       -6.11803       -7.63160
C         25.21175       -5.27565       -6.39305
N         24.99920       -4.91035       -3.79866
O         30.40494       -2.62378       -1.42113
O         28.10924       -4.04803       -1.90244
O         23.39353       -6.21417       -7.88412
O         26.63950       -5.28685       -6.29966
Br         0.99403        0.09585       -0.01572
H          9.04518       -5.64536        5.73344
H          8.48204       -4.77762        4.29124
H          9.79133       -4.10052        5.27876
H         38.89159      -20.25985      -10.47634
H         39.66923      -18.72651      -10.91709
H         38.27355      -19.31125      -11.84320
H         24.56033       -2.91330       -3.09891
H         23.38734       -3.55380       -4.24369
H         25.00709       -3.04110       -4.83545
H         24.58383       -5.02885       -1.66823
H         24.63331       -6.60851       -2.53790
H         23.29474       -5.39269       -2.72872
H          9.94521       -6.71330        3.68584
H         11.24849       -6.03927        4.66889
H         38.21729      -18.47265       -8.89684
H         36.82787      -19.05479       -9.81882
H         11.26307       -3.98167        3.23643
H          9.96201       -4.65711        2.25328
H         37.07985      -17.13461      -11.41004
H         38.46847      -16.55276      -10.48864
H         11.42001       -6.60337        1.65985
H         12.72196       -5.92747        2.64375
H         37.02314      -16.31151       -8.46008
H         35.63333      -16.89575       -9.38062
H         12.72002       -3.86304        1.22800
H         11.41822       -4.53867        0.24431
H         35.90036      -14.99467      -10.98817
H         37.28832      -14.41031      -10.06514
H         12.87804       -6.48135       -0.35243
H         14.17907       -5.80619        0.63067
H         35.83872      -14.16839       -8.04081
H         34.45162      -14.74916       -8.96469
H         14.16852       -3.73178       -0.77637
H         12.86452       -4.40854       -1.76178
H         34.72659      -12.85406      -10.57729
H         36.11979      -12.27097       -9.65823
H         14.30644       -6.34436       -2.34652
H         15.61514       -5.66363       -1.35704
H         34.68020      -12.05134       -7.63447
H         33.28855      -12.63122       -8.57910
H         14.79182       -3.59082       -3.28900
H         34.42218      -10.35248      -10.03734
H         16.41289       -4.41015       -4.84595
H         32.98168       -8.88370       -8.84460
H         16.33413       -6.93081       -2.99864
H         17.78614       -6.32773       -3.72638
H         32.76152      -11.28779       -6.86500
H         31.44008      -10.24207       -7.26011
H         15.32959       -7.40622       -5.21423
H         16.84981       -8.27161       -4.96065
H         34.03483       -9.40095       -5.85137
H         32.47677       -9.67182       -5.06748
H         16.53122       -5.65370       -6.52384
H         16.76432       -7.24147       -7.23099
H         33.04977       -7.56191       -7.21361
H         32.86357       -7.24299       -5.50071
H         18.95179       -7.45728       -6.03080
H         18.73900       -5.85680       -5.33155
H         30.53405       -8.17362       -5.58229
H         30.70601       -8.47160       -7.30914
H         18.62977       -4.83801       -7.58882
H         18.87958       -6.43186       -8.31119
H         31.14463       -6.07546       -7.73039
H         30.95097       -5.74168       -6.00417
H         21.02311       -6.68264       -7.06434
H         20.78668       -5.09209       -6.32741
H         28.63841       -6.67788       -6.08739
H         28.82905       -7.00710       -7.80814
H         20.81903       -4.04272       -8.53914
H         21.06649       -5.58167       -9.34129
H         29.23613       -4.57230       -8.24641
H         29.05706       -4.22692       -6.52181
H         26.80317       -5.96150       -3.34348
H         27.03805       -4.50284       -4.33546
H         30.05316       -4.22335       -0.16796
H         29.80527       -2.61107        0.54834
H         22.92511       -4.34773       -7.23186
H         23.25333       -4.42651       -8.98282
H         27.00044       -5.47029       -8.33651
H         26.98405       -3.80296       -7.69941
H         26.25834       -4.52545       -1.35649
H         26.37322       -3.07582       -2.35586
H         27.82086       -2.25692       -0.91111
H         27.63261       -3.71106        0.10373
H         25.03417       -6.77795       -4.76841
H         23.54261       -5.85316       -5.05119
H         25.26888       -7.10513       -7.53811
H         25.21157       -5.67623       -8.53694
H         24.90843       -4.24060       -6.56141
H         30.33041       -3.22564       -2.18452
