19

C          1.46625       -0.13994        0.23975
C          5.86463        5.24213       -3.63319
C          2.49909        0.69516        0.41578
C          6.37302        4.36310       -2.76032
C          3.29194        1.30671       -0.69723
C          5.55805        3.50332       -1.84036
O          7.32668        1.46488       -1.82491
S          5.03513        0.85070       -0.52285
S          5.88456        1.73070       -2.14356
H          0.92703       -0.54167        1.09299
H          1.13717       -0.44844       -0.74850
H          6.52186        5.84005       -4.25891
H          4.79535        5.39246       -3.74764
H          2.77898        0.96987        1.43181
H          7.45493        4.25912       -2.68203
H          3.18565        2.39370       -0.63732
H          2.92654        0.98012       -1.67643
H          4.48832        3.67610       -1.99126
H          5.81166        3.73605       -0.80162
