51

C          6.27583       -3.08062       -0.65525
C          1.33794       -9.64800        1.07980
C          2.89525       -1.54993        2.64551
C         -0.59898       -5.85149        3.17591
C          3.59678       -2.68271        1.87430
C          0.41689       -5.68437        2.03543
C          3.52263       -1.69727       -0.42287
C         -1.18774       -5.54141        0.11681
C         -0.73792       -6.93461       -0.33564
C          2.53908       -2.80085       -0.84220
C          4.46601       -2.19932        0.68929
C         -0.09675       -4.78008        0.89878
C         -0.05076       -7.72176        0.80610
C          1.76647       -3.30900        0.39689
O          3.82305       -0.61720        3.17372
O         -0.91451       -4.59429        3.76364
O          4.23869       -1.18381       -1.55096
O         -1.59560       -4.77219       -1.02323
O          0.13973       -6.79778       -1.47638
O          3.27335       -3.84438       -1.50655
O          5.25446       -3.34952        0.29914
O          0.63356       -8.81574        0.16941
O          0.88882       -6.93972        1.54030
O          2.65053       -3.68489        1.45566
O          0.96175       -4.42360       -0.00997
H          6.97768       -3.92044       -0.64649
H          6.82340       -2.16518       -0.41700
H          5.85754       -3.02944       -1.66132
H          2.01741      -10.28019        0.50184
H          0.63581      -10.29083        1.61983
H          1.94052       -9.07237        1.78856
H          2.29356       -1.96180        3.46263
H          2.19886       -0.99727        2.01010
H         -0.20378       -6.51466        3.95199
H         -1.53375       -6.30317        2.83128
H          4.26448       -3.19092        2.58148
H          1.29313       -5.21732        2.48816
H          2.95156       -0.84345       -0.04123
H         -2.07413       -5.64825        0.75347
H         -1.59334       -7.50526       -0.70910
H          1.83635       -2.41965       -1.59753
H          5.15897       -1.41055        1.00867
H         -0.53771       -3.85321        1.28382
H         -0.80479       -8.12263        1.49669
H          1.10992       -2.50562        0.75195
H          4.10847       -0.93999        4.04732
H         -0.12653       -4.29509        4.25217
H          4.13097       -1.84349       -2.26454
H         -0.85444       -4.90187       -1.65660
H          0.72130       -7.58555       -1.43522
H          3.68876       -4.37319       -0.79111
