137

C          5.17415       -0.04724       -0.09700
C          3.81878        0.19434        0.50270
C          2.67705        0.44048       -0.47195
C          1.80197        1.29308        0.09475
C          0.88619        0.33574        0.79140
N          0.80310       -0.72429       -0.00021
C          1.98120       -0.76210       -0.78124
C          2.65870       -1.86003       -1.21435
C          2.32813       -3.10475       -0.47167
C          3.18616       -3.76636        0.40978
C          2.36616       -3.87469        1.51542
C          1.09814       -3.54146        1.17023
N          1.03889       -3.21602       -0.10932
C          0.05072       -3.59027        2.22665
C         -1.28499       -3.31469        1.98654
C         -1.91415       -2.56695        0.80185
C         -3.18200       -1.83459        1.30976
C         -3.08794       -2.36973        2.71347
N         -2.33860       -3.43782        2.86003
C         -3.46821       -1.44463        3.82234
C         -2.24344       -0.86722        3.99907
C         -1.13826       -1.70510        4.47238
C         -0.03792       -0.89479        4.45378
C         -0.43518        0.14474        3.34364
C          0.00313        0.57392        2.08018
N         -1.76221        0.36954        3.69052
C          0.17652       -0.57121        5.93579
C          0.48040       -1.36158        7.00073
C         -1.44787       -2.96683        5.23416
C         -3.31704       -0.30763        1.10703
C         -2.36180       -3.57620       -0.24541
C         -1.22872       -4.44264       -0.73637
C         -1.57765       -5.52513       -1.63784
O         -1.23030       -6.66076       -1.54506
O         -2.38457       -4.99876       -2.61735
C         -3.37673       -5.87890       -2.95218
C         -4.64559       -5.12091       -2.79524
C         -5.84173       -5.69287       -3.03120
C         -5.95126       -7.15411       -3.39508
C         -7.10756       -4.90228       -2.87889
C         -8.16132       -5.54508       -1.98065
C         -7.70845       -5.66697       -0.52560
C         -8.80328       -6.25753        0.38608
C         -9.18459       -7.68085       -0.02940
C         -8.36178       -6.25828        1.86050
C         -8.13822       -4.83890        2.37928
C         -7.69831       -4.83313        3.83527
C         -7.33321       -3.41990        4.33281
C         -8.53221       -2.46621        4.23670
C         -6.80712       -3.46184        5.78413
C         -5.53962       -4.31290        5.93940
C         -5.06660       -4.41424        7.39706
C         -3.92971       -5.44615        7.60375
C         -2.76913       -5.15059        6.69184
C         -3.36228       -5.37940        9.02268
C          1.01587       -3.94306        3.47911
C          2.43983       -4.15398        2.90889
O          3.43575       -4.44510        3.56801
C          0.71872       -5.13719        4.34344
O          0.33242       -6.21435        3.88174
O          1.11034       -4.91548        5.62894
C          0.95292       -5.97631        6.56936
C          4.66420       -3.99094        0.35439
C          1.84718        2.66291       -0.45479
Mg        -0.39999       -1.47059       -1.23318
H          5.87226       -0.18263        0.73161
H          5.48593        0.80488       -0.70218
H          5.21944       -0.94948       -0.70752
H          3.88891        1.07043        1.15603
H          3.55188       -0.64481        1.16360
H          3.63564       -1.82101       -1.68299
H         -1.23600       -1.80702        0.45690
H         -4.08931       -2.24555        0.85862
H         -4.36062       -0.86380        3.62608
H         -0.64515        1.39878        1.76000
H         -0.28873        0.37485        6.20065
H          0.79968       -2.40380        6.95897
H          0.26488       -1.00497        8.01557
H         -1.22887       -3.86314        4.66042
H         -2.51966       -3.02475        5.41337
H         -0.91309       -3.14011        6.15701
H         -2.44085        0.26604        1.38188
H         -4.14656        0.10422        1.70087
H         -3.51734       -0.03037        0.07004
H         -2.82364       -3.02504       -1.07601
H         -3.14638       -4.21514        0.18114
H         -0.72034       -4.94285        0.09952
H         -0.57134       -3.83073       -1.35299
H         -3.40933       -6.76346       -2.29371
H         -3.21151       -6.18265       -3.98635
H         -4.60451       -4.08039       -2.49058
H         -4.98276       -7.64886       -3.52296
H         -6.47542       -7.24558       -4.34826
H         -6.47531       -7.72073       -2.62155
H         -7.52751       -4.77939       -3.88415
H         -6.89724       -3.89039       -2.50874
H         -8.42734       -6.52374       -2.38709
H         -9.06703       -4.92914       -2.01871
H         -7.44023       -4.65865       -0.19369
H         -6.79811       -6.27316       -0.44120
H         -9.70082       -5.63135        0.29984
H         -8.31647       -8.34770       -0.00290
H         -9.60408       -7.70487       -1.03898
H         -9.95001       -8.08799        0.63918
H         -7.44810       -6.85443        1.98095
H         -9.13556       -6.73950        2.47307
H         -9.06533       -4.27238        2.25057
H         -7.35671       -4.33646        1.80255
H         -6.82429       -5.48823        3.90164
H         -8.47721       -5.27083        4.47052
H         -6.53913       -3.01703        3.68922
H         -9.38048       -2.83715        4.82167
H         -8.86654       -2.34019        3.20159
H         -8.27140       -1.46859        4.60359
H         -7.59214       -3.84780        6.44472
H         -6.58771       -2.43740        6.11206
H         -4.75952       -3.86866        5.31070
H         -5.70483       -5.32965        5.57585
H         -5.91021       -4.69865        8.03522
H         -4.73982       -3.41807        7.72331
H         -4.29091       -6.45732        7.38997
H         -2.49898       -4.12904        6.94581
H         -3.02373       -5.25446        5.63333
H         -1.88666       -5.76220        6.88100
H         -3.07449       -4.35227        9.28099
H         -2.45402       -5.99118        9.10048
H         -4.08148       -5.73931        9.75789
H          1.13879       -3.06606        4.12181
H          0.39632       -5.58423        7.42462
H          1.93914       -6.28934        6.92216
H          0.41737       -6.83698        6.16355
H          5.07669       -3.66836       -0.60848
H          4.87514       -5.06138        0.46992
H          5.18387       -3.44871        1.15293
H          1.81124        3.42020        0.31905
H          1.10310        2.83875       -1.24094
H          2.81755        2.79190       -0.97398
