57

C          0.85099        0.42315        1.41395
C          0.68625       -0.87106        1.93138
C         -4.41228        4.62614       -2.80302
C         -5.78607        4.85816       -2.56695
C         -7.31167       -2.66934        6.81138
C         -8.09233       -1.50107        6.76622
C         -9.05183       -1.07926        1.76387
C         -8.28164       -1.70834        2.74123
C         -0.16635        1.34857        1.60035
C         -0.43248       -1.21791        2.74613
C         -3.62665        3.81153       -1.94950
C         -6.40491        4.28751       -1.47365
C         -5.92482       -2.67072        6.42717
C         -7.46083       -0.29767        6.48470
C         -8.81482        0.24921        1.42500
C         -7.27973       -1.02180        3.43587
C         -1.32312        0.91771        2.26759
C         -1.42660       -0.27048        3.01529
C         -4.25918        3.22787       -0.87339
C         -5.61194        3.47910       -0.69260
C         -5.33002       -1.48897        5.97027
C         -6.09838       -0.33703        6.13645
C         -7.92618        0.94388        2.23798
C         -7.20803        0.37274        3.29581
C         -2.61353        0.95024        1.55289
C         -2.90640       -0.54476        3.16344
C         -3.95202        2.20508        0.15725
C         -4.07300       -0.94610        5.20550
C         -6.05101        2.67598        0.41226
C         -5.26521        0.71631        5.59142
C         -7.35383        2.17175        2.08356
C         -6.51937        1.48466        3.86769
N         -3.43062       -0.01013        1.94847
N         -5.03591        1.74854        0.71455
N         -3.94106        0.31083        5.49767
N         -6.84355        2.58156        3.23128
N         -2.76668        1.62096        0.37652
N         -3.61453       -1.37135        3.91797
N         -7.21203        2.86323        0.94357
N         -5.53835        1.65938        4.77455
Cu        -3.98334       -0.15778        0.06818
H          1.70002        0.66793        0.77483
H          1.41113       -1.63131        1.63121
H         -3.96901        5.09442       -3.68070
H         -6.37281        5.48940       -3.23056
H         -7.80907       -3.59057        7.13356
H         -9.17551       -1.54247        6.92575
H         -9.82424       -1.64050        1.24389
H         -8.45885       -2.75944        2.97138
H         -0.14987        2.29828        1.06824
H         -0.56908       -2.26600        2.99599
H         -2.58011        3.64732       -2.18237
H         -7.45270        4.43415       -1.24011
H         -5.38131       -3.60411        6.53547
H         -8.04419        0.61816        6.42162
H         -9.32004        0.74967        0.60999
H         -6.63574       -1.61161        4.05552
