24

C          1.49231        0.18272        0.19142
C          0.40987        1.27549        0.20569
C         -0.82369        0.95171       -0.65916
C         -0.50178        1.07482       -2.16234
C          0.07621        2.46155       -2.45088
C          1.25056        2.76718       -1.49792
O          2.52775        0.51530        1.11203
O         -1.87270        1.89499       -0.36061
O          0.40375        0.04468       -2.55257
O         -0.92830        3.48590       -2.31644
O          1.62125        4.13301       -1.66258
O          0.93710        2.57106       -0.12323
H          1.97060        0.05559       -0.78180
H          1.06764       -0.77926        0.49942
H          0.08187        1.38280        1.24685
H         -1.19783       -0.05096       -0.42430
H         -1.42970        0.94474       -2.73252
H          0.43637        2.52673       -3.48326
H          2.12645        2.16059       -1.75257
H          2.82113        1.41997        0.88508
H         -1.93358        1.97624        0.61024
H          0.70493        0.22821       -3.46146
H         -1.47128        3.24449       -1.53227
H          0.76800        4.59620       -1.79410
