43

C          0.95399        0.23246       -0.07868
C          2.46977        0.13039       -0.04928
C          2.95491       -1.24466        0.41113
C          4.48074       -1.31175        0.43286
C          4.97259       -2.68110        0.89885
C          6.49895       -2.72158        0.91459
C          7.00091       -4.08229        1.37445
C          8.52929       -4.13678        1.36540
C          9.05463       -5.49463        1.82170
C          8.59603       -6.63497        0.90839
C          9.09398       -8.00308        1.37110
C          8.59683       -8.36616        2.76946
O          6.87813       -9.94403        4.57113
O          6.93237       -7.53235        5.05670
O          5.01289       -8.49641        3.86715
O          7.17969       -8.33335        2.77728
S          6.43586       -8.60466        4.20370
Na         0.40949       -2.90260       -0.74267
H          0.64844        1.25888       -0.30804
H          0.51663       -0.04807        0.88608
H          0.53196       -0.42012       -0.85186
H          2.86273        0.90095        0.62545
H          2.86283        0.34328       -1.05137
H          2.57489       -2.01725       -0.26353
H          2.55999       -1.46154        1.41151
H          4.87595       -0.53684        1.09865
H          4.87072       -1.10911       -0.57159
H          4.58658       -3.46243        0.23147
H          4.58690       -2.89533        1.90278
H          6.88921       -1.94204        1.57829
H          6.88220       -2.51819       -0.09285
H          6.58517       -4.83870        0.70171
H          6.62769       -4.30576        2.38169
H          8.92533       -3.36563        2.03829
H          8.91104       -3.91472        0.36283
H          8.71625       -5.65603        2.85065
H         10.15096       -5.46913        1.84779
H          8.94169       -6.44533       -0.11474
H          7.50389       -6.67643        0.86175
H         10.18815       -8.03478        1.34097
H          8.72162       -8.74848        0.65730
H          8.99996       -7.66373        3.50724
H          8.95168       -9.36715        3.03139
