26

C          1.35515       -0.91687        0.50840
C          2.52296       -0.09723       -1.51377
C          5.58265        4.08115        2.45734
C          3.60632        3.39332        1.11026
C          5.21289        1.62767        1.84404
C          2.71008        2.40009        0.42602
C          4.50931        0.68168        0.86232
C          2.24548       -0.06828       -0.03411
C          4.73223        3.05661        1.76413
C          2.99476        0.93941        0.83269
H          0.81457       -1.64019       -0.09657
H          1.14082       -0.91797        1.57293
H          1.92013       -0.85552       -2.02618
H          3.57365       -0.33144       -1.70776
H          2.28444        0.86371       -1.97822
H          5.16759        5.09060        2.36547
H          6.58906        4.09473        2.02671
H          5.66222        3.84927        3.52413
H          3.29728        4.43456        1.05405
H          6.29135        1.58640        1.64957
H          5.05766        1.26787        2.86894
H          2.83201        2.54593       -0.65302
H          1.66644        2.64001        0.66404
H          4.71960       -0.35519        1.14954
H          4.93784        0.82621       -0.13781
H          2.63880        0.82501        1.86866
