11

C          1.01217       -0.09233       -0.02275
C          2.52968       -0.08428       -0.02146
C          3.03380        1.00933       -0.91271
O          4.36071        3.20154       -1.37519
S          3.96046        2.22195       -0.32750
H          0.63402       -0.89846        0.61307
H          0.61992       -0.24160       -1.03459
H          0.61387        0.85695        0.35124
H          2.90207       -1.03556       -0.41638
H          2.90334        0.03100        1.00085
H          2.78049        0.99140       -1.98317
